p edge 250 3127
e 0 8
e 0 11
e 0 23
e 0 39
e 0 43
e 0 48
e 0 58
e 0 61
e 0 100
e 0 108
e 0 120
e 0 122
e 0 128
e 0 129
e 0 140
e 0 151
e 0 159
e 0 191
e 0 209
e 0 219
e 0 221
e 0 231
e 0 238
e 1 14
e 1 19
e 1 23
e 1 38
e 1 53
e 1 58
e 1 61
e 1 71
e 1 72
e 1 82
e 1 85
e 1 89
e 1 97
e 1 105
e 1 111
e 1 131
e 1 134
e 1 136
e 1 199
e 1 203
e 1 218
e 1 221
e 1 230
e 1 233
e 1 238
e 1 248
e 2 11
e 2 26
e 2 35
e 2 42
e 2 54
e 2 55
e 2 58
e 2 82
e 2 83
e 2 85
e 2 103
e 2 107
e 2 114
e 2 122
e 2 139
e 2 143
e 2 177
e 2 191
e 2 208
e 2 220
e 2 240
e 2 241
e 2 249
e 3 22
e 3 51
e 3 72
e 3 105
e 3 110
e 3 115
e 3 130
e 3 137
e 3 145
e 3 161
e 3 170
e 3 189
e 3 206
e 3 222
e 3 224
e 3 231
e 3 234
e 3 238
e 4 10
e 4 35
e 4 76
e 4 104
e 4 108
e 4 115
e 4 121
e 4 128
e 4 129
e 4 149
e 4 152
e 4 169
e 4 184
e 4 199
e 4 209
e 4 234
e 4 235
e 4 242
e 4 249
e 5 12
e 5 23
e 5 25
e 5 40
e 5 53
e 5 71
e 5 78
e 5 98
e 5 108
e 5 116
e 5 120
e 5 128
e 5 134
e 5 143
e 5 156
e 5 157
e 5 161
e 5 168
e 5 180
e 5 181
e 5 185
e 5 195
e 5 206
e 5 211
e 5 234
e 5 235
e 5 248
e 6 22
e 6 33
e 6 34
e 6 39
e 6 55
e 6 64
e 6 85
e 6 86
e 6 103
e 6 104
e 6 106
e 6 134
e 6 143
e 6 148
e 6 150
e 6 152
e 6 160
e 6 161
e 6 177
e 6 182
e 6 191
e 6 208
e 6 221
e 6 228
e 6 249
e 7 9
e 7 11
e 7 21
e 7 33
e 7 34
e 7 44
e 7 45
e 7 53
e 7 57
e 7 62
e 7 77
e 7 81
e 7 122
e 7 138
e 7 151
e 7 170
e 7 175
e 7 176
e 7 178
e 7 184
e 7 192
e 7 228
e 7 232
e 8 9
e 8 13
e 8 27
e 8 31
e 8 46
e 8 49
e 8 51
e 8 79
e 8 97
e 8 102
e 8 103
e 8 114
e 8 125
e 8 133
e 8 139
e 8 142
e 8 145
e 8 148
e 8 157
e 8 159
e 8 171
e 8 187
e 8 195
e 8 203
e 8 210
e 8 222
e 8 223
e 8 239
e 8 240
e 8 242
e 8 243
e 9 33
e 9 54
e 9 79
e 9 83
e 9 84
e 9 95
e 9 96
e 9 100
e 9 108
e 9 115
e 9 122
e 9 123
e 9 129
e 9 141
e 9 142
e 9 149
e 9 160
e 9 171
e 9 173
e 9 178
e 9 182
e 9 187
e 9 191
e 9 194
e 9 202
e 9 208
e 9 214
e 9 230
e 9 234
e 9 239
e 9 242
e 10 37
e 10 63
e 10 85
e 10 91
e 10 95
e 10 96
e 10 104
e 10 113
e 10 117
e 10 175
e 10 190
e 10 195
e 10 198
e 10 202
e 10 237
e 10 243
e 10 249
e 11 14
e 11 15
e 11 18
e 11 19
e 11 21
e 11 28
e 11 35
e 11 40
e 11 42
e 11 54
e 11 68
e 11 78
e 11 84
e 11 99
e 11 106
e 11 115
e 11 120
e 11 121
e 11 135
e 11 136
e 11 138
e 11 144
e 11 164
e 11 168
e 11 171
e 11 175
e 11 177
e 11 183
e 11 195
e 11 201
e 11 202
e 11 210
e 11 219
e 11 223
e 11 224
e 11 247
e 12 14
e 12 17
e 12 49
e 12 54
e 12 55
e 12 58
e 12 72
e 12 80
e 12 109
e 12 130
e 12 146
e 12 156
e 12 158
e 12 159
e 12 161
e 12 163
e 12 169
e 12 184
e 12 190
e 12 198
e 12 202
e 12 227
e 12 233
e 12 234
e 12 236
e 12 237
e 12 248
e 13 29
e 13 34
e 13 42
e 13 60
e 13 64
e 13 73
e 13 87
e 13 97
e 13 104
e 13 109
e 13 123
e 13 126
e 13 129
e 13 133
e 13 154
e 13 165
e 13 191
e 13 203
e 13 207
e 13 210
e 13 213
e 13 236
e 13 239
e 14 16
e 14 27
e 14 42
e 14 44
e 14 53
e 14 80
e 14 96
e 14 107
e 14 108
e 14 113
e 14 134
e 14 149
e 14 153
e 14 166
e 14 172
e 14 191
e 14 219
e 14 224
e 14 233
e 14 238
e 15 20
e 15 28
e 15 32
e 15 46
e 15 48
e 15 58
e 15 64
e 15 68
e 15 71
e 15 82
e 15 84
e 15 95
e 15 96
e 15 100
e 15 101
e 15 131
e 15 147
e 15 154
e 15 157
e 15 164
e 15 179
e 15 193
e 15 207
e 15 232
e 15 233
e 15 240
e 16 18
e 16 41
e 16 47
e 16 86
e 16 87
e 16 92
e 16 96
e 16 102
e 16 121
e 16 126
e 16 131
e 16 134
e 16 143
e 16 147
e 16 150
e 16 162
e 16 167
e 16 171
e 16 177
e 16 186
e 16 191
e 16 196
e 16 202
e 16 221
e 16 223
e 16 225
e 17 29
e 17 33
e 17 49
e 17 50
e 17 57
e 17 97
e 17 101
e 17 104
e 17 153
e 17 173
e 17 183
e 17 187
e 17 193
e 17 204
e 17 217
e 17 228
e 17 240
e 17 241
e 17 247
e 18 19
e 18 26
e 18 56
e 18 59
e 18 72
e 18 77
e 18 94
e 18 99
e 18 101
e 18 138
e 18 144
e 18 145
e 18 177
e 18 190
e 18 202
e 18 203
e 18 209
e 18 232
e 18 246
e 18 248
e 19 32
e 19 34
e 19 42
e 19 70
e 19 75
e 19 77
e 19 94
e 19 96
e 19 116
e 19 122
e 19 129
e 19 132
e 19 135
e 19 146
e 19 163
e 19 200
e 19 231
e 19 235
e 19 237
e 19 241
e 20 22
e 20 29
e 20 36
e 20 44
e 20 58
e 20 62
e 20 66
e 20 68
e 20 76
e 20 88
e 20 95
e 20 96
e 20 104
e 20 105
e 20 126
e 20 139
e 20 142
e 20 145
e 20 149
e 20 155
e 20 162
e 20 164
e 20 178
e 20 179
e 20 187
e 20 208
e 20 214
e 20 220
e 20 229
e 20 240
e 20 243
e 20 246
e 21 28
e 21 34
e 21 35
e 21 41
e 21 44
e 21 50
e 21 51
e 21 56
e 21 62
e 21 63
e 21 64
e 21 66
e 21 71
e 21 75
e 21 87
e 21 93
e 21 126
e 21 127
e 21 168
e 21 178
e 21 213
e 21 215
e 21 216
e 21 225
e 21 229
e 21 240
e 21 241
e 21 243
e 21 246
e 22 26
e 22 27
e 22 34
e 22 35
e 22 38
e 22 63
e 22 74
e 22 79
e 22 88
e 22 90
e 22 98
e 22 102
e 22 104
e 22 106
e 22 113
e 22 115
e 22 142
e 22 165
e 22 171
e 22 189
e 22 218
e 22 228
e 22 248
e 23 27
e 23 29
e 23 30
e 23 37
e 23 50
e 23 53
e 23 55
e 23 57
e 23 64
e 23 68
e 23 71
e 23 78
e 23 80
e 23 83
e 23 94
e 23 106
e 23 108
e 23 112
e 23 123
e 23 144
e 23 160
e 23 167
e 23 189
e 23 232
e 23 233
e 23 235
e 23 243
e 24 36
e 24 41
e 24 62
e 24 64
e 24 94
e 24 104
e 24 111
e 24 133
e 24 134
e 24 143
e 24 152
e 24 153
e 24 161
e 24 192
e 24 198
e 24 203
e 24 214
e 24 246
e 25 29
e 25 65
e 25 79
e 25 83
e 25 90
e 25 99
e 25 101
e 25 103
e 25 106
e 25 142
e 25 146
e 25 150
e 25 160
e 25 173
e 25 174
e 25 183
e 25 186
e 25 199
e 25 202
e 25 211
e 25 217
e 25 218
e 25 226
e 25 244
e 26 29
e 26 32
e 26 38
e 26 48
e 26 65
e 26 133
e 26 140
e 26 142
e 26 151
e 26 154
e 26 159
e 26 166
e 26 168
e 26 201
e 26 208
e 26 215
e 26 233
e 26 246
e 27 31
e 27 32
e 27 51
e 27 55
e 27 69
e 27 86
e 27 90
e 27 99
e 27 108
e 27 112
e 27 113
e 27 122
e 27 130
e 27 131
e 27 138
e 27 149
e 27 162
e 27 166
e 27 171
e 27 177
e 27 179
e 27 206
e 27 211
e 27 225
e 27 229
e 28 59
e 28 63
e 28 68
e 28 89
e 28 105
e 28 113
e 28 122
e 28 136
e 28 146
e 28 180
e 28 203
e 28 210
e 28 213
e 28 217
e 28 234
e 28 244
e 28 247
e 29 36
e 29 58
e 29 60
e 29 68
e 29 70
e 29 76
e 29 112
e 29 119
e 29 139
e 29 145
e 29 150
e 29 151
e 29 174
e 29 182
e 29 184
e 29 198
e 29 216
e 29 218
e 29 220
e 29 223
e 29 230
e 29 232
e 29 238
e 30 47
e 30 50
e 30 53
e 30 83
e 30 106
e 30 119
e 30 129
e 30 136
e 30 139
e 30 140
e 30 145
e 30 167
e 30 168
e 30 191
e 30 196
e 30 227
e 30 232
e 30 243
e 31 34
e 31 36
e 31 47
e 31 57
e 31 66
e 31 71
e 31 72
e 31 98
e 31 100
e 31 115
e 31 133
e 31 137
e 31 148
e 31 149
e 31 153
e 31 154
e 31 158
e 31 161
e 31 187
e 31 191
e 31 192
e 31 228
e 31 232
e 31 237
e 32 35
e 32 43
e 32 69
e 32 70
e 32 81
e 32 91
e 32 102
e 32 107
e 32 111
e 32 119
e 32 120
e 32 126
e 32 135
e 32 136
e 32 154
e 32 155
e 32 171
e 32 182
e 32 190
e 32 205
e 32 215
e 32 216
e 32 220
e 32 224
e 32 227
e 33 47
e 33 54
e 33 56
e 33 60
e 33 66
e 33 86
e 33 87
e 33 106
e 33 115
e 33 129
e 33 147
e 33 156
e 33 204
e 33 209
e 33 214
e 33 215
e 33 224
e 33 232
e 33 241
e 33 245
e 34 35
e 34 42
e 34 43
e 34 69
e 34 72
e 34 77
e 34 79
e 34 95
e 34 96
e 34 104
e 34 120
e 34 124
e 34 132
e 34 136
e 34 155
e 34 161
e 34 173
e 34 186
e 34 190
e 34 223
e 34 227
e 34 234
e 34 237
e 34 238
e 34 242
e 35 52
e 35 54
e 35 67
e 35 68
e 35 92
e 35 150
e 35 156
e 35 161
e 35 167
e 35 168
e 35 169
e 35 174
e 35 220
e 35 221
e 35 238
e 35 241
e 35 245
e 36 41
e 36 57
e 36 74
e 36 82
e 36 98
e 36 105
e 36 116
e 36 121
e 36 126
e 36 144
e 36 155
e 36 164
e 36 178
e 36 180
e 36 221
e 36 225
e 36 227
e 36 228
e 36 232
e 37 72
e 37 93
e 37 94
e 37 104
e 37 116
e 37 119
e 37 123
e 37 129
e 37 135
e 37 158
e 37 161
e 37 168
e 37 187
e 37 210
e 37 223
e 37 226
e 37 232
e 37 241
e 37 249
e 38 55
e 38 58
e 38 85
e 38 86
e 38 87
e 38 90
e 38 101
e 38 104
e 38 119
e 38 122
e 38 131
e 38 135
e 38 152
e 38 160
e 38 169
e 38 174
e 38 179
e 38 205
e 38 223
e 38 234
e 38 235
e 38 243
e 38 245
e 38 249
e 39 47
e 39 74
e 39 82
e 39 85
e 39 90
e 39 97
e 39 100
e 39 103
e 39 119
e 39 123
e 39 126
e 39 131
e 39 152
e 39 163
e 39 164
e 39 189
e 39 193
e 39 208
e 39 219
e 39 222
e 39 224
e 39 239
e 40 45
e 40 48
e 40 49
e 40 64
e 40 65
e 40 72
e 40 77
e 40 87
e 40 108
e 40 119
e 40 120
e 40 133
e 40 142
e 40 155
e 40 174
e 40 175
e 40 176
e 40 181
e 40 182
e 40 209
e 40 211
e 40 228
e 40 240
e 41 45
e 41 48
e 41 56
e 41 69
e 41 74
e 41 95
e 41 100
e 41 101
e 41 103
e 41 114
e 41 116
e 41 134
e 41 144
e 41 146
e 41 151
e 41 154
e 41 156
e 41 204
e 41 227
e 41 233
e 42 49
e 42 91
e 42 94
e 42 101
e 42 111
e 42 114
e 42 125
e 42 132
e 42 136
e 42 140
e 42 155
e 42 161
e 42 162
e 42 166
e 42 189
e 42 199
e 42 216
e 42 224
e 42 235
e 42 238
e 42 248
e 43 53
e 43 73
e 43 80
e 43 85
e 43 96
e 43 99
e 43 107
e 43 108
e 43 113
e 43 121
e 43 128
e 43 144
e 43 161
e 43 205
e 43 208
e 43 211
e 43 216
e 43 217
e 43 218
e 43 225
e 43 227
e 43 231
e 43 233
e 43 238
e 43 239
e 43 242
e 44 45
e 44 55
e 44 79
e 44 82
e 44 88
e 44 101
e 44 105
e 44 113
e 44 131
e 44 136
e 44 156
e 44 160
e 44 164
e 44 202
e 44 203
e 44 211
e 44 230
e 44 240
e 44 249
e 45 46
e 45 50
e 45 52
e 45 55
e 45 72
e 45 78
e 45 87
e 45 108
e 45 119
e 45 145
e 45 151
e 45 180
e 45 187
e 45 191
e 45 204
e 45 210
e 45 221
e 45 227
e 45 241
e 45 249
e 46 54
e 46 62
e 46 67
e 46 74
e 46 78
e 46 88
e 46 98
e 46 99
e 46 103
e 46 105
e 46 146
e 46 149
e 46 150
e 46 163
e 46 164
e 46 184
e 46 187
e 46 189
e 46 197
e 46 202
e 46 227
e 46 231
e 46 244
e 47 50
e 47 52
e 47 61
e 47 63
e 47 64
e 47 73
e 47 77
e 47 87
e 47 92
e 47 114
e 47 119
e 47 131
e 47 134
e 47 137
e 47 144
e 47 147
e 47 195
e 47 197
e 47 205
e 47 208
e 47 215
e 47 219
e 47 220
e 47 248
e 48 55
e 48 57
e 48 70
e 48 79
e 48 81
e 48 88
e 48 91
e 48 105
e 48 110
e 48 118
e 48 134
e 48 138
e 48 155
e 48 158
e 48 164
e 48 170
e 48 178
e 48 191
e 48 192
e 48 194
e 48 205
e 48 210
e 48 219
e 48 230
e 48 238
e 48 241
e 48 244
e 48 248
e 49 62
e 49 73
e 49 89
e 49 91
e 49 96
e 49 99
e 49 105
e 49 110
e 49 115
e 49 117
e 49 118
e 49 119
e 49 136
e 49 139
e 49 143
e 49 148
e 49 153
e 49 157
e 49 171
e 49 182
e 49 186
e 49 207
e 49 235
e 49 242
e 49 249
e 50 58
e 50 62
e 50 72
e 50 74
e 50 76
e 50 79
e 50 82
e 50 89
e 50 94
e 50 95
e 50 96
e 50 105
e 50 121
e 50 129
e 50 139
e 50 140
e 50 146
e 50 160
e 50 164
e 50 183
e 50 195
e 50 204
e 50 237
e 50 239
e 50 242
e 51 57
e 51 81
e 51 82
e 51 83
e 51 84
e 51 94
e 51 96
e 51 123
e 51 129
e 51 164
e 51 166
e 51 167
e 51 174
e 51 175
e 51 189
e 51 191
e 51 208
e 51 220
e 51 222
e 51 223
e 51 233
e 51 234
e 52 59
e 52 69
e 52 70
e 52 71
e 52 89
e 52 90
e 52 99
e 52 116
e 52 121
e 52 131
e 52 160
e 52 167
e 52 172
e 52 173
e 52 194
e 52 196
e 52 201
e 52 203
e 52 206
e 52 217
e 52 220
e 52 221
e 52 228
e 53 68
e 53 93
e 53 98
e 53 112
e 53 131
e 53 140
e 53 159
e 53 161
e 53 182
e 53 187
e 53 191
e 53 193
e 53 195
e 53 202
e 53 215
e 53 225
e 53 236
e 54 63
e 54 78
e 54 85
e 54 106
e 54 115
e 54 147
e 54 179
e 54 181
e 54 208
e 54 212
e 54 223
e 54 228
e 54 241
e 55 61
e 55 65
e 55 76
e 55 91
e 55 106
e 55 134
e 55 135
e 55 147
e 55 156
e 55 158
e 55 164
e 55 174
e 55 214
e 55 228
e 55 239
e 55 246
e 55 247
e 55 248
e 56 59
e 56 70
e 56 114
e 56 122
e 56 164
e 56 172
e 56 174
e 56 186
e 56 209
e 56 218
e 56 228
e 56 229
e 56 230
e 56 245
e 57 121
e 57 123
e 57 143
e 57 165
e 57 166
e 57 193
e 57 221
e 57 238
e 57 241
e 57 246
e 58 71
e 58 79
e 58 91
e 58 106
e 58 108
e 58 113
e 58 125
e 58 135
e 58 137
e 58 155
e 58 158
e 58 187
e 58 198
e 58 204
e 58 213
e 58 216
e 58 224
e 59 61
e 59 74
e 59 85
e 59 89
e 59 118
e 59 120
e 59 121
e 59 128
e 59 135
e 59 138
e 59 143
e 59 170
e 59 174
e 59 185
e 59 192
e 59 194
e 59 196
e 59 202
e 59 215
e 59 222
e 59 233
e 59 236
e 60 69
e 60 71
e 60 74
e 60 88
e 60 98
e 60 112
e 60 136
e 60 145
e 60 146
e 60 150
e 60 151
e 60 154
e 60 169
e 60 176
e 60 177
e 60 200
e 60 201
e 60 203
e 60 232
e 60 233
e 60 235
e 61 65
e 61 66
e 61 107
e 61 122
e 61 123
e 61 129
e 61 147
e 61 158
e 61 200
e 61 206
e 61 215
e 61 218
e 61 219
e 61 225
e 61 236
e 61 245
e 62 65
e 62 67
e 62 79
e 62 82
e 62 94
e 62 105
e 62 131
e 62 136
e 62 140
e 62 158
e 62 161
e 62 177
e 62 182
e 62 192
e 62 195
e 62 207
e 62 220
e 62 226
e 62 247
e 63 76
e 63 79
e 63 95
e 63 109
e 63 120
e 63 126
e 63 127
e 63 131
e 63 142
e 63 147
e 63 177
e 63 193
e 63 196
e 63 199
e 63 218
e 63 220
e 63 231
e 63 235
e 63 245
e 64 67
e 64 81
e 64 90
e 64 98
e 64 100
e 64 112
e 64 118
e 64 122
e 64 127
e 64 143
e 64 146
e 64 153
e 64 171
e 64 172
e 64 200
e 64 201
e 64 216
e 64 233
e 64 236
e 64 238
e 64 241
e 65 100
e 65 106
e 65 140
e 65 144
e 65 154
e 65 163
e 65 168
e 65 172
e 65 197
e 65 204
e 65 205
e 65 225
e 65 239
e 66 69
e 66 73
e 66 80
e 66 96
e 66 129
e 66 130
e 66 132
e 66 146
e 66 170
e 66 184
e 66 189
e 66 205
e 66 242
e 66 249
e 67 72
e 67 79
e 67 86
e 67 91
e 67 92
e 67 104
e 67 109
e 67 130
e 67 140
e 67 150
e 67 158
e 67 159
e 67 162
e 67 163
e 67 165
e 67 189
e 67 203
e 67 209
e 67 212
e 67 217
e 67 221
e 67 222
e 68 70
e 68 94
e 68 96
e 68 105
e 68 107
e 68 136
e 68 142
e 68 174
e 68 176
e 68 179
e 68 188
e 68 194
e 68 207
e 68 218
e 68 220
e 68 224
e 68 229
e 68 243
e 69 94
e 69 105
e 69 125
e 69 138
e 69 161
e 69 168
e 69 176
e 69 186
e 69 189
e 69 205
e 69 217
e 69 248
e 70 83
e 70 96
e 70 105
e 70 148
e 70 153
e 70 158
e 70 183
e 70 185
e 70 192
e 70 208
e 70 234
e 70 244
e 70 245
e 70 246
e 71 79
e 71 83
e 71 88
e 71 96
e 71 97
e 71 117
e 71 136
e 71 142
e 71 143
e 71 145
e 71 152
e 71 168
e 71 175
e 71 187
e 71 208
e 71 211
e 71 222
e 71 225
e 72 74
e 72 84
e 72 95
e 72 100
e 72 105
e 72 109
e 72 126
e 72 127
e 72 129
e 72 134
e 72 144
e 72 164
e 72 170
e 72 174
e 72 178
e 72 185
e 72 186
e 72 195
e 72 220
e 73 81
e 73 84
e 73 91
e 73 111
e 73 122
e 73 137
e 73 160
e 73 177
e 73 192
e 73 203
e 73 205
e 73 213
e 73 227
e 73 229
e 73 235
e 73 245
e 73 249
e 74 93
e 74 99
e 74 107
e 74 110
e 74 113
e 74 117
e 74 118
e 74 119
e 74 136
e 74 154
e 74 159
e 74 168
e 74 169
e 74 182
e 74 184
e 74 185
e 74 190
e 74 210
e 74 211
e 74 218
e 74 224
e 74 238
e 75 103
e 75 104
e 75 119
e 75 120
e 75 131
e 75 141
e 75 151
e 75 166
e 75 173
e 75 177
e 75 193
e 75 205
e 75 215
e 75 226
e 75 228
e 75 229
e 75 231
e 75 245
e 75 248
e 76 93
e 76 115
e 76 129
e 76 145
e 76 161
e 76 163
e 76 165
e 76 171
e 76 178
e 76 182
e 76 188
e 76 189
e 76 209
e 76 230
e 76 239
e 76 245
e 76 248
e 76 249
e 77 105
e 77 113
e 77 133
e 77 142
e 77 150
e 77 157
e 77 183
e 77 193
e 77 197
e 77 207
e 77 215
e 77 220
e 77 230
e 78 98
e 78 100
e 78 105
e 78 118
e 78 125
e 78 137
e 78 140
e 78 149
e 78 150
e 78 165
e 78 186
e 78 193
e 78 213
e 78 217
e 78 218
e 78 221
e 78 227
e 79 85
e 79 89
e 79 103
e 79 104
e 79 114
e 79 140
e 79 170
e 79 176
e 79 177
e 79 178
e 79 191
e 79 238
e 79 241
e 79 243
e 80 92
e 80 132
e 80 147
e 80 159
e 80 164
e 80 166
e 80 187
e 80 205
e 80 210
e 80 212
e 80 214
e 80 222
e 81 89
e 81 91
e 81 105
e 81 112
e 81 117
e 81 140
e 81 143
e 81 146
e 81 148
e 81 151
e 81 156
e 81 205
e 81 213
e 81 219
e 81 224
e 81 235
e 81 244
e 82 142
e 82 145
e 82 157
e 82 159
e 82 162
e 82 165
e 82 186
e 82 196
e 82 197
e 82 198
e 82 203
e 82 218
e 82 220
e 82 227
e 82 232
e 82 233
e 82 245
e 83 116
e 83 130
e 83 148
e 83 151
e 83 164
e 83 168
e 83 182
e 83 200
e 83 226
e 83 229
e 83 236
e 84 91
e 84 93
e 84 97
e 84 99
e 84 107
e 84 108
e 84 114
e 84 120
e 84 122
e 84 125
e 84 133
e 84 147
e 84 149
e 84 152
e 84 155
e 84 174
e 84 188
e 84 201
e 84 207
e 84 211
e 84 215
e 84 218
e 84 220
e 84 222
e 84 231
e 84 232
e 84 239
e 84 241
e 84 249
e 85 90
e 85 93
e 85 97
e 85 98
e 85 105
e 85 107
e 85 109
e 85 131
e 85 142
e 85 150
e 85 153
e 85 173
e 85 178
e 85 182
e 85 192
e 85 195
e 85 205
e 85 240
e 85 244
e 86 90
e 86 111
e 86 112
e 86 113
e 86 133
e 86 134
e 86 135
e 86 146
e 86 148
e 86 164
e 86 169
e 86 180
e 86 182
e 86 187
e 86 212
e 86 226
e 86 229
e 86 232
e 86 245
e 87 104
e 87 117
e 87 119
e 87 123
e 87 124
e 87 127
e 87 128
e 87 131
e 87 155
e 87 156
e 87 169
e 87 171
e 87 174
e 87 183
e 87 192
e 87 199
e 87 215
e 88 95
e 88 99
e 88 125
e 88 144
e 88 149
e 88 157
e 88 163
e 88 171
e 88 206
e 88 209
e 88 215
e 88 227
e 88 231
e 88 245
e 88 246
e 88 249
e 89 98
e 89 100
e 89 106
e 89 111
e 89 127
e 89 131
e 89 148
e 89 150
e 89 151
e 89 161
e 89 179
e 89 189
e 89 191
e 89 199
e 89 211
e 89 226
e 89 231
e 89 244
e 89 246
e 90 100
e 90 109
e 90 113
e 90 115
e 90 137
e 90 138
e 90 144
e 90 146
e 90 149
e 90 150
e 90 157
e 90 158
e 90 164
e 90 173
e 90 182
e 90 201
e 90 203
e 90 218
e 90 219
e 90 227
e 90 231
e 90 247
e 91 96
e 91 128
e 91 147
e 91 167
e 91 183
e 91 184
e 91 195
e 91 197
e 91 202
e 91 206
e 91 207
e 91 214
e 91 222
e 91 228
e 91 232
e 91 234
e 91 238
e 91 240
e 91 241
e 91 248
e 92 97
e 92 100
e 92 101
e 92 116
e 92 167
e 92 192
e 92 199
e 92 212
e 92 217
e 92 221
e 92 230
e 92 242
e 92 247
e 92 248
e 93 126
e 93 130
e 93 134
e 93 160
e 93 173
e 93 175
e 93 183
e 93 187
e 93 203
e 93 225
e 93 244
e 94 100
e 94 101
e 94 103
e 94 112
e 94 121
e 94 126
e 94 128
e 94 133
e 94 137
e 94 143
e 94 150
e 94 151
e 94 173
e 94 183
e 94 188
e 94 200
e 94 201
e 94 208
e 94 226
e 94 236
e 94 237
e 94 242
e 94 245
e 95 115
e 95 119
e 95 121
e 95 142
e 95 172
e 95 180
e 95 189
e 95 204
e 95 210
e 95 220
e 95 224
e 95 237
e 95 240
e 96 100
e 96 105
e 96 112
e 96 113
e 96 121
e 96 122
e 96 130
e 96 134
e 96 137
e 96 156
e 96 158
e 96 162
e 96 176
e 96 180
e 96 187
e 96 198
e 96 202
e 96 203
e 96 225
e 97 110
e 97 111
e 97 120
e 97 128
e 97 153
e 97 155
e 97 156
e 97 159
e 97 175
e 97 176
e 97 197
e 97 214
e 97 219
e 97 221
e 97 225
e 97 235
e 97 239
e 97 242
e 98 102
e 98 110
e 98 123
e 98 132
e 98 139
e 98 145
e 98 146
e 98 160
e 98 167
e 98 170
e 98 185
e 98 216
e 98 217
e 98 220
e 98 224
e 98 235
e 98 247
e 99 104
e 99 144
e 99 173
e 99 175
e 99 189
e 99 198
e 99 230
e 100 114
e 100 121
e 100 122
e 100 132
e 100 154
e 100 162
e 100 164
e 100 168
e 100 187
e 100 198
e 100 217
e 100 232
e 100 236
e 100 238
e 100 245
e 101 102
e 101 116
e 101 119
e 101 126
e 101 127
e 101 133
e 101 139
e 101 150
e 101 177
e 101 179
e 101 201
e 101 210
e 101 212
e 101 215
e 101 225
e 101 226
e 101 227
e 102 107
e 102 111
e 102 129
e 102 136
e 102 142
e 102 144
e 102 146
e 102 147
e 102 178
e 102 183
e 102 189
e 102 197
e 102 199
e 102 200
e 102 220
e 102 221
e 102 249
e 103 109
e 103 110
e 103 141
e 103 146
e 103 148
e 103 153
e 103 159
e 103 167
e 103 168
e 103 175
e 103 178
e 103 180
e 103 184
e 103 185
e 103 189
e 103 190
e 103 198
e 103 229
e 103 235
e 104 112
e 104 115
e 104 130
e 104 134
e 104 150
e 104 159
e 104 182
e 104 190
e 104 208
e 104 221
e 104 234
e 104 244
e 104 246
e 105 107
e 105 108
e 105 123
e 105 131
e 105 148
e 105 150
e 105 153
e 105 163
e 105 170
e 105 173
e 105 189
e 105 210
e 105 221
e 105 225
e 105 236
e 105 241
e 105 249
e 106 142
e 106 171
e 106 176
e 106 184
e 106 186
e 106 189
e 106 208
e 106 223
e 106 239
e 106 245
e 107 114
e 107 116
e 107 145
e 107 167
e 107 180
e 107 194
e 107 218
e 107 230
e 107 242
e 108 110
e 108 130
e 108 145
e 108 154
e 108 157
e 108 158
e 108 161
e 108 171
e 108 177
e 108 188
e 108 195
e 108 201
e 108 211
e 108 220
e 108 221
e 108 228
e 108 238
e 108 249
e 109 120
e 109 127
e 109 161
e 109 177
e 109 181
e 109 192
e 109 195
e 109 199
e 109 206
e 109 220
e 110 131
e 110 132
e 110 133
e 110 156
e 110 158
e 110 163
e 110 166
e 110 177
e 110 182
e 110 214
e 110 218
e 110 223
e 110 224
e 110 247
e 111 112
e 111 118
e 111 120
e 111 124
e 111 127
e 111 130
e 111 137
e 111 141
e 111 143
e 111 145
e 111 147
e 111 161
e 111 163
e 111 182
e 111 195
e 111 209
e 111 210
e 111 217
e 111 233
e 111 246
e 112 115
e 112 138
e 112 155
e 112 161
e 112 172
e 112 192
e 112 193
e 112 206
e 112 207
e 112 218
e 112 232
e 112 236
e 112 242
e 113 142
e 113 156
e 113 158
e 113 165
e 113 167
e 113 169
e 113 210
e 113 223
e 113 232
e 113 239
e 113 242
e 113 245
e 113 248
e 114 125
e 114 137
e 114 140
e 114 149
e 114 164
e 114 165
e 114 169
e 114 213
e 114 217
e 114 222
e 114 223
e 114 229
e 115 116
e 115 119
e 115 122
e 115 124
e 115 131
e 115 139
e 115 142
e 115 144
e 115 175
e 115 179
e 115 183
e 115 185
e 115 217
e 115 236
e 115 243
e 116 120
e 116 136
e 116 140
e 116 158
e 116 161
e 116 178
e 116 191
e 116 192
e 116 196
e 116 208
e 116 213
e 116 222
e 116 239
e 116 244
e 117 143
e 117 146
e 117 149
e 117 160
e 117 177
e 117 179
e 117 181
e 117 205
e 117 210
e 117 220
e 117 229
e 117 246
e 118 122
e 118 123
e 118 140
e 118 158
e 118 179
e 118 184
e 118 194
e 118 208
e 118 229
e 118 245
e 119 121
e 119 131
e 119 139
e 119 141
e 119 149
e 119 168
e 119 169
e 119 178
e 119 198
e 119 205
e 119 212
e 119 247
e 120 124
e 120 146
e 120 162
e 120 177
e 120 180
e 120 184
e 120 203
e 120 206
e 120 212
e 120 219
e 120 229
e 121 139
e 121 149
e 121 150
e 121 157
e 121 158
e 121 159
e 121 185
e 121 196
e 121 200
e 121 202
e 121 208
e 121 221
e 121 233
e 121 247
e 122 128
e 122 147
e 122 156
e 122 167
e 122 174
e 122 190
e 122 198
e 122 199
e 122 200
e 122 210
e 122 215
e 122 217
e 122 223
e 122 225
e 122 227
e 122 228
e 122 236
e 122 239
e 122 245
e 123 130
e 123 132
e 123 134
e 123 142
e 123 150
e 123 152
e 123 199
e 123 201
e 123 205
e 123 218
e 123 231
e 123 235
e 124 130
e 124 145
e 124 161
e 124 167
e 124 181
e 124 185
e 124 194
e 124 196
e 124 197
e 124 200
e 125 154
e 125 156
e 125 170
e 125 177
e 125 186
e 125 215
e 125 218
e 125 229
e 125 239
e 125 248
e 125 249
e 126 141
e 126 156
e 126 160
e 126 167
e 126 177
e 126 179
e 126 181
e 126 187
e 126 196
e 126 202
e 126 208
e 126 209
e 126 229
e 126 237
e 126 239
e 126 240
e 127 140
e 127 145
e 127 149
e 127 164
e 127 173
e 127 175
e 127 182
e 127 188
e 127 190
e 127 209
e 127 213
e 127 220
e 127 224
e 127 225
e 127 227
e 127 228
e 127 240
e 128 141
e 128 165
e 128 171
e 128 194
e 128 199
e 128 208
e 128 216
e 128 218
e 128 236
e 128 237
e 128 238
e 128 239
e 128 243
e 129 160
e 129 186
e 129 197
e 129 221
e 129 227
e 129 238
e 129 242
e 130 142
e 130 147
e 130 157
e 130 162
e 130 167
e 130 171
e 130 197
e 130 208
e 130 217
e 130 232
e 130 241
e 130 242
e 131 132
e 131 133
e 131 134
e 131 152
e 131 183
e 131 191
e 131 200
e 131 207
e 131 213
e 131 217
e 131 219
e 131 220
e 131 224
e 131 245
e 132 140
e 132 154
e 132 180
e 132 186
e 132 190
e 132 196
e 132 204
e 132 214
e 132 226
e 132 231
e 132 239
e 133 136
e 133 137
e 133 159
e 133 175
e 133 183
e 133 201
e 133 202
e 133 203
e 133 207
e 133 226
e 133 232
e 133 233
e 133 238
e 134 135
e 134 151
e 134 156
e 134 160
e 134 161
e 134 182
e 134 191
e 134 195
e 134 201
e 134 202
e 134 209
e 134 215
e 134 232
e 134 246
e 134 248
e 135 154
e 135 160
e 135 163
e 135 197
e 135 211
e 135 220
e 135 231
e 136 151
e 136 158
e 136 162
e 136 177
e 136 180
e 136 186
e 136 207
e 136 224
e 136 234
e 136 240
e 136 246
e 137 143
e 137 189
e 137 193
e 137 194
e 137 201
e 137 203
e 137 212
e 137 214
e 137 216
e 137 237
e 137 246
e 138 154
e 138 161
e 138 166
e 138 173
e 138 182
e 138 194
e 138 197
e 138 198
e 138 202
e 138 211
e 138 223
e 138 232
e 139 152
e 139 154
e 139 166
e 139 174
e 139 186
e 139 188
e 139 197
e 139 206
e 139 212
e 139 225
e 139 230
e 139 244
e 139 247
e 140 147
e 140 163
e 140 176
e 140 181
e 140 183
e 140 195
e 140 199
e 140 200
e 140 218
e 140 241
e 141 148
e 141 150
e 141 157
e 141 173
e 141 178
e 141 190
e 141 196
e 141 208
e 141 212
e 141 215
e 141 227
e 141 238
e 142 143
e 142 150
e 142 211
e 142 225
e 142 230
e 143 169
e 143 180
e 143 192
e 143 209
e 143 214
e 143 218
e 143 219
e 143 233
e 144 158
e 144 159
e 144 171
e 144 193
e 144 194
e 144 200
e 144 210
e 144 215
e 144 218
e 144 227
e 144 230
e 144 231
e 144 234
e 144 243
e 145 154
e 145 159
e 145 163
e 145 179
e 145 184
e 145 193
e 145 195
e 145 197
e 145 199
e 145 202
e 145 212
e 145 215
e 145 223
e 145 225
e 145 229
e 145 239
e 146 152
e 146 166
e 146 179
e 146 199
e 146 213
e 146 226
e 146 230
e 147 162
e 147 165
e 147 170
e 147 182
e 147 184
e 147 187
e 147 191
e 147 202
e 147 203
e 147 234
e 147 237
e 147 247
e 148 164
e 148 167
e 148 170
e 148 172
e 148 174
e 148 178
e 148 204
e 148 206
e 148 212
e 148 224
e 148 232
e 148 244
e 148 245
e 149 157
e 149 174
e 149 195
e 149 216
e 149 220
e 149 224
e 149 232
e 149 238
e 150 156
e 150 162
e 150 169
e 150 171
e 150 179
e 150 233
e 150 239
e 150 242
e 151 184
e 151 196
e 151 210
e 151 231
e 152 176
e 152 213
e 152 216
e 152 222
e 152 226
e 153 154
e 153 174
e 153 193
e 153 200
e 153 208
e 153 211
e 153 214
e 153 219
e 153 224
e 153 239
e 153 241
e 153 249
e 154 160
e 154 166
e 154 178
e 154 185
e 154 195
e 154 200
e 154 210
e 154 220
e 154 239
e 154 243
e 155 170
e 155 188
e 155 191
e 155 204
e 155 208
e 155 233
e 155 237
e 156 169
e 156 193
e 156 194
e 156 196
e 156 198
e 156 206
e 156 209
e 156 218
e 156 222
e 156 236
e 156 243
e 156 244
e 156 246
e 157 164
e 157 176
e 157 204
e 157 233
e 158 159
e 158 172
e 158 175
e 158 192
e 158 198
e 158 201
e 158 211
e 158 214
e 158 223
e 158 230
e 158 237
e 158 238
e 158 246
e 159 170
e 159 174
e 159 182
e 159 183
e 159 194
e 159 203
e 159 231
e 159 232
e 159 233
e 160 185
e 160 186
e 160 187
e 160 189
e 160 203
e 160 208
e 160 222
e 160 230
e 160 240
e 160 244
e 161 185
e 161 192
e 161 198
e 161 248
e 162 180
e 162 195
e 162 237
e 162 249
e 163 169
e 163 182
e 163 183
e 163 184
e 163 195
e 163 197
e 163 202
e 163 209
e 163 223
e 163 226
e 163 231
e 163 233
e 163 238
e 164 169
e 164 173
e 164 179
e 164 199
e 164 200
e 164 220
e 164 222
e 164 227
e 164 229
e 164 245
e 164 249
e 165 174
e 165 176
e 165 199
e 165 200
e 165 206
e 165 212
e 165 219
e 165 222
e 165 227
e 165 228
e 165 239
e 166 175
e 166 184
e 166 210
e 166 242
e 167 222
e 167 244
e 167 245
e 168 171
e 168 176
e 168 195
e 168 196
e 168 218
e 168 221
e 168 228
e 168 235
e 169 177
e 169 179
e 169 181
e 169 188
e 169 202
e 169 204
e 169 209
e 169 214
e 169 246
e 170 176
e 170 187
e 170 192
e 170 197
e 170 205
e 170 212
e 170 227
e 170 232
e 170 233
e 170 245
e 170 246
e 170 247
e 170 248
e 171 176
e 171 179
e 171 190
e 171 194
e 171 195
e 171 197
e 171 200
e 171 206
e 171 226
e 171 231
e 171 232
e 171 239
e 172 218
e 172 219
e 172 226
e 172 231
e 172 236
e 172 244
e 173 175
e 173 180
e 173 198
e 173 200
e 173 225
e 173 236
e 173 244
e 174 187
e 174 207
e 174 214
e 174 238
e 175 188
e 175 195
e 175 206
e 175 212
e 175 238
e 176 213
e 176 220
e 176 240
e 176 245
e 177 179
e 177 200
e 177 204
e 177 212
e 177 215
e 177 243
e 177 245
e 177 247
e 178 181
e 178 186
e 178 195
e 178 206
e 178 213
e 178 218
e 178 224
e 178 225
e 179 189
e 179 198
e 179 239
e 180 184
e 180 193
e 180 210
e 180 211
e 180 213
e 180 216
e 180 228
e 181 187
e 181 207
e 181 212
e 181 223
e 181 233
e 181 236
e 181 246
e 182 196
e 182 204
e 182 213
e 182 215
e 182 216
e 182 228
e 182 234
e 182 237
e 182 241
e 183 184
e 183 191
e 183 192
e 183 195
e 183 215
e 183 231
e 184 196
e 184 204
e 184 208
e 184 210
e 184 232
e 184 242
e 184 245
e 184 246
e 185 190
e 185 196
e 185 207
e 185 227
e 185 233
e 186 187
e 186 189
e 186 196
e 186 199
e 186 215
e 186 219
e 186 220
e 186 223
e 186 226
e 186 241
e 187 188
e 187 201
e 187 208
e 187 224
e 187 245
e 187 246
e 188 189
e 188 193
e 188 199
e 188 202
e 188 208
e 188 210
e 188 225
e 188 226
e 188 248
e 189 192
e 189 204
e 189 209
e 189 213
e 189 225
e 189 233
e 189 245
e 190 196
e 190 198
e 190 219
e 190 224
e 191 201
e 191 215
e 191 220
e 191 228
e 191 230
e 191 235
e 191 241
e 191 246
e 192 193
e 192 204
e 192 209
e 192 229
e 192 231
e 192 242
e 193 197
e 193 214
e 193 225
e 193 249
e 194 196
e 194 204
e 194 225
e 194 237
e 194 240
e 194 249
e 195 199
e 195 224
e 195 244
e 195 247
e 195 248
e 196 215
e 196 229
e 196 243
e 197 199
e 197 204
e 197 210
e 197 218
e 197 223
e 197 232
e 197 247
e 198 206
e 198 209
e 198 210
e 198 217
e 198 222
e 198 223
e 198 224
e 198 225
e 198 236
e 199 200
e 199 212
e 199 221
e 199 242
e 199 246
e 200 203
e 200 207
e 200 217
e 200 224
e 200 225
e 200 241
e 200 247
e 201 210
e 201 225
e 201 245
e 201 248
e 202 205
e 202 210
e 202 229
e 202 243
e 203 204
e 203 227
e 203 235
e 203 248
e 204 212
e 204 226
e 204 247
e 205 242
e 205 246
e 206 208
e 206 218
e 206 232
e 206 241
e 206 244
e 207 229
e 207 232
e 207 234
e 208 213
e 208 228
e 208 229
e 208 232
e 208 243
e 208 246
e 209 212
e 209 218
e 209 237
e 210 213
e 211 215
e 211 218
e 211 227
e 212 213
e 212 223
e 212 230
e 212 243
e 212 247
e 213 218
e 213 222
e 214 215
e 214 225
e 214 240
e 214 243
e 214 244
e 214 247
e 214 249
e 215 232
e 215 245
e 216 226
e 216 242
e 217 246
e 218 219
e 219 232
e 219 243
e 220 221
e 220 230
e 221 225
e 221 228
e 221 234
e 222 224
e 222 236
e 226 243
e 227 228
e 227 229
e 227 233
e 227 234
e 227 241
e 227 246
e 228 239
e 229 233
e 229 234
e 229 244
e 230 231
e 230 232
e 230 235
e 230 244
e 230 245
e 232 237
e 233 237
e 233 239
e 233 241
e 234 235
e 235 237
e 235 242
e 235 243
e 235 249
e 236 237
e 237 241
e 238 241
e 243 245
e 244 247
e 246 248
